
  32   50
  14    6    5    6   13   16    8   20   16   17   10    5   15   11   18    8    9   13   17    2   10    4   13   13    5   15   16   11   10    8   10    5    0    0    0    0    0    0    0    0    0    0    0    0    0    0    0    0    0    0

   0   0   0   0   0   0   0   0   0   0   0   0   0   0   0   0   0   0   0   0   0   0   0   0   0   0   0   0   0   0   0   0   0   0   0   0   0   0   0   0   0   0   0   0   0   0   0   0   0   0   0   7 2 3 5 6 8 10 11 
   1   0   0   0   0   0  10   4   0   0   5   0   0   0   0   8   0   9   7   0   0   0   0   0  10   0   0   0   0   0   0   0   0   0   0   0   0   0   0   0   0   0   0   0   0   0   0   0   0   0   0   6 16 14 12 9 7 4 
   8  10   0   0   0   0   0   4   0   0   0   0   0   0   0   0   0   0   0   0   0   0   0   5   0   0   0   0   0   7   0   9   0   0   0   0   0   0   0   0   0   0   0   0   0   0   0   0   0   0   0  10 31 30 29 26 21 19 17 15 14 13 
   3   0   0   0   0   0   0   0   5   0   0   0   0   0   0   0   0   0   0   0   0   0   0   0   0   0   0   0   0   0   0   0   0   0   0   0   0   0   0   0   0   0   0   0   0   0   0   0   0   0   0   7 31 30 28 27 20 15 13 
   7   0   0   0   0   0   0   0   0   0   0   0   0   6   2   0   6   0   0   0   2   0   4  10   5   0   0   0   0   0   0   0   0   0   0   0   0   0   0   0   0   0   0   0   0   0   0   0   0   0   0   9 31 29 28 27 26 25 24 22 19 
   8   0   0   0   0   0   0   0   0   0   0  10   0   0   0   9   0   0   0   0   0   0   0   0   0   0   0   0   5   6   0   0   0   0   0   0   0   0   0   0   0   0   0   0   0   0   0   0   0   0   0   7 30 29 27 24 19 18 14 
   9   0   0   0   0   0   0   0   0   0   5   0   0   0  10   0   0   0   0   0   0   0   0   0   0   4   0   0   0   0   0   0   0   0   0   0   0   0   0   0   0   0   0   0   0   0   0   0   0   0   0   7 31 29 27 25 24 20 18 
   9   1   0   0   0   6   0   0   0   0   3   0   0   0   1   0   0   0   0   4   0   0   0   0   0   0   0   0   0   0   0   0   0   0   0   0   0   0   0   0   0   0   0   0   0   0   0   0   0   0   0   5 28 27 26 25 16 
   4   6   0   0   0   0   7   0   0   0   0   0   0   0   0   0   0   0   0  10   0   0   0   0   0   0   9  10   0   0   8   0   0   0   0   0   0   0   0   0   0   0   0   0   0   0   0   0   0   0   0   5 29 27 24 19 18 
   5   0   0   0   0   0   1   0   0   0   0   0   0   0   0   0   0   0   0   0   0   0   1   0   0   2   9  10   0   0   0   3   0   0   0   0   0   0   0   0   0   0   0   0   0   0   0   0   0   0   0   6 30 26 25 24 23 22 
   4   0   0   0   0   1   0   0  10   0   0   0   0   0   0   0   0   0   0   0   0   0   0   0   0   0   0   0   8   0   0   0   0   0   0   0   0   0   0   0   0   0   0   0   0   0   0   0   0   0   0   6 27 26 25 24 23 22 
   3   0   0   0   0   0   4   0   0   0   1   0   0   0   0   0   0   0   0   7   0   0   0   0   0   0   0   0   0   0   0   0   0   0   0   0   0   0   0   0   0   0   0   0   0   0   0   0   0   0   0   4 27 26 24 22 
   8   0   0   0   0   0   0   0   0   0   0   0   0   0   0   0   5   0   0   0   0   0   1   0   0   0   0   0   0   0   0   0   0   0   0   0   0   0   0   0   0   0   0   0   0   0   0   0   0   0   0   3 25 23 18 
   9   0   0   0   0   0   0   0   0   0   4   0   0   0   0   0   0   0   2   0   0   0   0   0   0   0   0   0   0   0   4   0   0   0   0   0   0   0   0   0   0   0   0   0   0   0   0   0   0   0   0   3 28 23 22 
   5   0   0   0   0   0   0   0   0   0   0   0   0   0   0   0   0   0   0   0   0   0   0   0   0   0   0   0   0   0   0   0   0   0   0   0   0   0   0   0   0   0   0   0   0   0   0   0   0   0   0   3 25 24 22 
   2   0   0   0   0   0   0   0  10   0   0   0   5   0   0   0   0   0   0   0   0   0   0   0   0   0   0   0   0   0   0   0   0   0   0   0   0   0   0   0   0   0   0   0   0   0   0   0   0   0   0   3 24 23 22 
   4   0   0   0   0   0   0   0   0   0   0   0   0   0   0   0   5   0   0   0   0   0   0   0   0   0   0   0   0   0   0   0   0   0   0   0   0   0   0   0   0   0   0   0   0   0   0   0   0   0   0   3 25 24 23 
  10   0   0   5   0   0   0   8   8   0   0   0   0   0   0   0   0   0   0   0   0   0   0   4   0   0   0   0   0   0   0   0   0   0   0   0   0   0   0   0   0   0   0   0   0   0   0   0   0   0   0   1 22 
   8   0   0   0   0   2   8   0   0   8   0   0   0   4   0   9   0   2   0   0   0   0   0   0   0   1  10   0   0   0   1   0   0   0   0   0   0   0   0   0   0   0   0   0   0   0   0   0   0   0   0   1 23 
   9   0   0   0   0   0   3   0   0   0   0   0   0   0   0   3   0   0   4   0   0   0   0   0   0   0   0   0   0   0   0   0   0   0   0   0   0   0   0   0   0   0   0   0   0   0   0   0   0   0   0   1 26 
   4   0   0   0   0   8   0   0   0   9   0   0   0   6   0   9   0   0   0   0   0   9   0   0   0   1   0   6   0   0   0   0   0   0   0   0   0   0   0   0   0   0   0   0   0   0   0   0   0   0   0   1 23 
  10   0   0   0   0   0   0   0   0   0   0   0   2   0   0   0   0   4   0   0   0   0   0   0   0   0   0   4   0   0   0   2   5   0   0   0   0   0   0   0   0   0   0   0   0   0   0   0   0   0   0   1 32
   8   0   0   0   0   1   2   0   8   0   0   0   0   0   0   0   0   0   6   0   0   0   0   0   0   0   0   0   0   0   8   0   0   0   0   0   0   0   0   0   0   0   0   0   0   0   0   0   0   0   0   1 32
   3   0   5   0   0   0   0   0   0   0   0   0   0   1   0   0   0   4   0   0   0   0   3   0   0   0   0   0   0   0   0   0   0   0   0   0   0   0   0   0   0   0   0   0   0   0   0   0   0   0   0   1 32
   2   0   0   0   0   0   0   1  10   0  10   0   0   0   0   0   0   0   0   0   2   0   0   0   0   0   0   0   5   0   0   0   0   0   0   0   0   0   0   0   0   0   0   0   0   0   0   0   0   0   0   1 32
   6   0   0   0   0   0   4   0   0   0   0   0   2   0   0   0   0   0  10   0   0   0   0   0   0   0   0   0   0   0   0   0   0   0   0   0   0   0   0   0   0   0   0   0   0   0   0   0   0   0   0   1 32
   7   0   0   0   0   0   0   0   0   0   6   5   0   0   0   0   0   2   0   0   0   0   0   0   6   0   0   0   0   0   0   0   0   0   0   0   0   0   0   0   0   0   0   0   0   0   0   0   0   0   0   1 32
   4   9   0   0   0   0   0   0   0   3   0   0   0   0   0   0   0   0   0  10   0   0   0   0   1   0   0   0   0   0   0   0   0   0   0   0   0   0   0   0   0   0   0   0   0   0   0   0   0   0   0   1 32
   4   0   0   0   6   0   3   0   0   0   0   0   0   8   0   0   0   0   0   0   0   0   0   0  10   0   0   0   0   0   0   0   0   0   0   0   0   0   0   0   0   0   0   0   0   0   0   0   0   0   0   1 32
   3   0   6   0   0   0   6   0   0   4   9   0   0   1   0   0   0   0   0   6   0   0   0   0   0   0   0   0   0   0   0   0   0   0   0   0   0   0   0   0   0   0   0   0   0   0   0   0   0   0   0   1 32
   4   0   0   0   0   0   0   0   0   0   0   6   0   0   0   3   0   0   0   0   0   2   0   0   0   0   1   0   0   0   0   0   0   0   0   0   0   0   0   0   0   0   0   0   0   0   0   0   0   0   0   1 32
   0   0   0   0   0   0   0   0   0   0   0   0   0   0   0   0   0   0   0   0   0   0   0   0   0   0   0   0   0   0   0   0   0   0   0   0   0   0   0   0   0   0   0   0   0   0   0   0   0   0   0   0 
